p wcnf 108 54 55 
1 -22 -38 0 
1 52 -89 0 
1 7 61 0 
1 -62 17 0 
1 -73 -31 0 
1 13 -71 0 
1 2 -54 0 
1 -46 38 0 
1 -66 108 0 
1 -64 87 0 
1 -39 -22 0 
1 -71 81 0 
1 54 -26 0 
1 -91 27 0 
1 19 12 0 
1 -76 27 0 
1 15 17 0 
1 13 -68 0 
1 70 81 0 
1 -67 -68 0 
1 103 106 0 
1 -7 -35 0 
1 62 35 0 
1 38 -24 0 
1 73 -11 0 
1 36 74 0 
1 -61 43 0 
1 -20 -91 0 
1 -88 79 0 
1 -20 23 0 
1 65 -39 0 
1 82 -108 0 
1 -33 4 0 
1 106 51 0 
1 77 -98 0 
1 -64 85 0 
1 -104 91 0 
1 -108 37 0 
1 91 -12 0 
1 -103 37 0 
1 69 -45 0 
1 -24 86 0 
1 -42 -76 0 
1 62 -107 0 
1 93 -64 0 
1 -1 3 0 
1 33 -14 0 
1 -42 39 0 
1 -2 69 0 
1 70 49 0 
1 -20 -22 0 
1 92 47 0 
1 -15 53 0 
1 50 -37 0 
